Route #1: 1 14 33 12 29 24 7 20 27 1
Route #2: 1 39 11 35 17 32 4 2 45 9 28 1
Route #3: 1 16 44 10 30 18 42 46 1
Route #4: 1 6 25 13 40 34 37 38 19 1
Route #5: 1 21 3 31 23 41 22 1
Route #6: 1 36 26 5 8 43 1
Route #7: 1 15 1
cost 2376.3797547784184